27, 346
126, 3332
329, 4986
91, 3551
254, 2667
380, 2589
182, 2499
316, 2142
272, 1676
304, 1426
423, 3424
389, 2928
505, 2078
106, 4356
215, 4321
212, 3177
57, 1108
447, 2079
319, 4913
83, 1660
483, 4610
450, 1017
527, 4074
148, 3765
481, 3386
315, 4776
379, 3720
429, 4057